avail(1..120,0). chair(1..2,1). chair(3..4,2). tomograph(1,1). tomograph(2,2). required_chair(1). required_chair(2). required_chair(3). required_chair(4). required_chair(5). limit(1,1). on(6,2). on(7,2). on(8,2).

reg(0,0,4).
reg(1,0,1).
reg(2,0,1).
reg(3,0,1).
reg(4,0,3).
reg(5,0,3).
reg(6,0,9).
reg(7,0,10).
reg(8,0,5).
reg(9,0,11).

exam(11,0,3).
exam(11,1,2).
exam(11,2,0).
exam(11,3,8).
cost(11,5).
exam(1,0,2).
exam(1,1,2).
exam(1,2,4).
exam(1,3,6).
cost(1,8).
exam(10,0,2).
exam(10,1,2).
exam(10,2,3).
exam(10,3,7).
cost(10,7).
exam(9,0,2).
exam(9,1,2).
exam(9,2,5).
exam(9,3,7).
cost(9,9).
exam(3,0,2).
exam(3,1,2).
exam(3,2,10).
exam(3,3,7).
cost(3,14).
exam(4,0,2).
exam(4,1,2).
exam(4,2,5).
exam(4,3,8).
cost(4,9).
exam(5,0,2).
exam(5,1,2).
exam(5,2,2).
exam(5,3,9).
cost(5,6).
