ats(1). ats(2). ats(3). ats(4). ats(5). ats(6). ats(7). ats(8). ats(9). ats(10). ats(11). ats(12). ats(13). ats(14). ats(15). ats(16). ats(17). ats(18). ats(19). ats(20). ats(21). ats(22). ats(23). ats(24). ats(25). ats(26). ats(27). ats(28). ats(29). ats(30). ats(31). ats(32). ats(33). ats(34). ats(35). ats(36). ats(37). ats(38). ats(39). ats(40). ats(41). ats(42). ats(43). ats(44). ats(45). ats(46). ats(47). ats(48). ats(49). ats(50). ats(51). ats(52). ats(53). ats(54). ats(55). ats(56). ats(57). ats(58). ats(59). ats(60). ats(61). ats(62). ats(63). ats(64). ats(65). ats(66). ats(67). ats(68). ats(69). ats(70). ats(71). ats(72).

bed(1). bed(2). bed(3). bed(4). bed(5).
chair(1). chair(2). chair(3). chair(4). chair(5).

day(1).

registration(1,0,0,15,2,0,2,0).
registration(2,0,0,9,12,6,2,0).
registration(3,0,0,30,2,0,2,1).
registration(4,0,0,6,24,6,2,0).
registration(5,0,0,12,12,6,2,1).
registration(6,0,0,0,0,0,2,0).
registration(7,0,0,15,24,6,2,0).
registration(8,0,0,11,2,0,2,0).
registration(9,0,0,20,12,6,2,1).
registration(10,0,0,5,2,0,2,0).
